NAME: uk-teams-n41
COMMENT: Generated by Graham Kendall, Geoffrey De Smet, Nasser Sabar and Angelina Yee.
TYPE: TSP
DIMENSION: 41
EDGE_WEIGHT_TYPE: EUC_2D
NODE_COORD_SECTION
136 55.8601 -3.96 Airdrieonians_(AIR)
137 55.4697 -4.62 Ayr_United_(AYR)
138 56.7353 -2.6565 Brechin_City_(BRE)
139 56.0756 -3.442 Dunfermline_(DUF)
140 56.6523 -2.8849 Forfar_Athletic_(FOR)
141 55.9414 -4.7272 Greenock_Morton_(GRE)
142 57.5112 -1.796 Peterhead_(PET)
143 56.0282 -3.8145 Stenhousemuir_&_East_Stirlingshire_(STN&EAS)
144 56.1191 -3.9119 Stirling_Albion_(STI)
145 54.9022 -5.0125 Stranraer_(STR)
146 55.8602 -4.0115 Albion_Rovers_(ALB)
147 54.9948 -3.2612 Annan_Athletic_(ANN)
148 56.5523 -2.5914 Arbroath_(ARB)
149 55.76 -2.016 Berwick_Rangers_(BER)
150 55.9447 -4.0379 Clyde_(CLY)
151 56.1889 -2.9991 East_Fife_(EAF)
153 57.6518 -3.3209 Elgin_City_(ELG)
154 56.714 -2.459 Montrose_(MON)
155 55.8258 -4.252 Queen's_Park_(QUP)
156 56.1166 -3.7787 Alloa_Athletic_(ALL)
157 56.1088 -3.3472 Cowdenbeath_(COW)
158 55.9384 -4.5616 Dumbarton_(DUM)
159 56.0053 -3.7526 Falkirk_(FAL)
160 55.9388 -3.2325 Heart_of_Midlothian_(HEA)
161 55.9616 -3.1652 Hibernian_(HIB)
162 55.8864 -3.5221 Livingston_(LVG)
163 55.0703 -3.6246 Queen_of_the_South_(QUE)
164 56.0999 -3.1685 Raith_Rovers_(RAI)
165 55.8529 -4.3096 Rangers_(RAN)
166 57.1593 -2.0887 Aberdeen_(ABE)
167 55.8497 -4.2056 Celtic_(CEL)
168 56.4747 -2.9735 Dundee_(DUN)
169 56.4748 -2.969 Dundee_United_(DUU)
170 55.7821 -4.058 Hamilton_Academical_(HAM)
171 57.4951 -4.2175 Inverness_Caledonian_Thistle_(INV)
172 55.6046 -4.5085 Kilmarnock_(KIL)
173 55.7804 -3.9803 Motherwell_(MOT)
174 55.8815 -4.2694 Partick_Thistle_(PAR)
175 57.5959 -4.419 Ross_County_(ROS)
176 56.4099 -3.4768 St_Johnstone_(STJ)
177 55.8529 -4.4288 St_Mirren_(STM)
EOF
